TYPE : Vertex Cover
DIMENSION: 22
EDGE_DATA_SECTION:
0 5
0 9
0 12
0 21
1 3
1 4
1 7
1 8
1 9
1 16
1 21
2 5
2 6
2 9
2 10
2 16
2 19
2 20
2 21
3 4
3 17
3 19
4 7
4 9
4 13
4 15
4 21
5 14
5 15
5 21
6 10
6 16
6 21
7 13
7 17
8 9
8 10
8 12
8 15
8 16
8 17
8 19
9 11
9 13
9 19
11 13
11 15
13 14
13 20
13 21
14 17
14 20
15 21
16 17
16 19
16 20
17 18
-1
VERTEX_DEGREE:
4.0 7.0 8.0 4.0 7.0 5.0 4.0 4.0 8.0 8.0 3.0 3.0 2.0 7.0 4.0 5.0 7.0 6.0 1.0 5.0 4.0 8.0
VERTEX_COVER:
0 1 2 4 5 6 8 9 13 15 17 19 20
EOF
